c DCNF-Autarky [version 0.0.1]. 
c Copyright (c) 2018-2019 Swansea University. 
c 
c Input QBF/DQBF path: Castellini18//toilet_a_06_01.2.qdimacs
c Output SAT Translation Path: /tmp/toilet_a_06_01.2.qdimacs-dcnfAutarky.dimacs
c Input Clause Count (tautology free): 491
c
c Performing E1-Autarky iteration.
c Remaining clauses count after E-Reduction: 470
c
c Performing A1-Autarky iteration.
c Running Lingeling ... 
c
c Remaining clauses count after A-Reduction: 470
c
c Input Parameter (command line, file): 
c input filename   Castellini18//toilet_a_06_01.2.qdimacs
c output filename  /tmp/toilet_a_06_01.2.qdimacs-dcnfAutarky.dimacs
c autarky level    1
c conformity level 0
c encoding type    2
c no.of var        46
c no.of clauses    491
c no.of taut cls   0
c 
c Output Parameters: 
c remaining no.of clauses  470
c
c filename pn pc autarky ntaut rpa rpe rpcdiff result
c "Castellini18//toilet_a_06_01.2.qdimacs" 46 491 "E1+A1" 0 6 33 21 "RED" 
p cnf 46 470
e 8 9 10 11 12 13 14 15 16 17 18 19 20 21 0
a 32 31 30 29 28 33 0
e 1 2 3 4 5 6 7 22 23 24 25 26 27 34 35 36 37 38 39 40 41 42 43 44 45 46 0
-29 -30 -31 -32 -33 28 34 0
-29 -30 -31 -32 -33 28 35 0
-29 -30 -31 -32 -33 28 36 0
-29 -30 -31 -32 -33 28 37 0
-29 -30 -31 -32 -33 28 38 0
-29 -30 -31 -32 -33 -39 28 0
-29 -30 -31 -32 -34 28 33 0
-29 -30 -31 -32 28 33 35 0
-29 -30 -31 -32 28 33 36 0
-29 -30 -31 -32 28 33 37 0
-29 -30 -31 -32 28 33 38 0
-29 -30 -31 -32 28 33 39 0
-28 -30 -31 -32 -33 -34 29 0
-28 -30 -31 -32 -33 29 35 0
-28 -30 -31 -32 -33 29 36 0
-28 -30 -31 -32 -33 29 37 0
-28 -30 -31 -32 -33 29 38 0
-28 -30 -31 -32 -33 -39 29 0
-28 -30 -31 -32 29 33 34 0
-28 -30 -31 -32 -35 29 33 0
-28 -30 -31 -32 29 33 36 0
-28 -30 -31 -32 29 33 37 0
-28 -30 -31 -32 29 33 38 0
-28 -30 -31 -32 29 33 39 0
-30 -31 -32 -33 28 29 34 0
-30 -31 -32 -33 -35 28 29 0
-30 -31 -32 -33 28 29 36 0
-30 -31 -32 -33 28 29 37 0
-30 -31 -32 -33 28 29 38 0
-30 -31 -32 -33 -39 28 29 0
-30 -31 -32 -34 28 29 33 0
-30 -31 -32 -35 28 29 33 0
-30 -31 -32 28 29 33 36 0
-30 -31 -32 28 29 33 37 0
-30 -31 -32 28 29 33 38 0
-30 -31 -32 28 29 33 39 0
-28 -29 -31 -32 -33 -34 30 0
-28 -29 -31 -32 -33 -35 30 0
-28 -29 -31 -32 -33 30 36 0
-28 -29 -31 -32 -33 30 37 0
-28 -29 -31 -32 -33 30 38 0
-28 -29 -31 -32 -33 -39 30 0
-28 -29 -31 -32 30 33 34 0
-28 -29 -31 -32 30 33 35 0
-28 -29 -31 -32 -36 30 33 0
-28 -29 -31 -32 30 33 37 0
-28 -29 -31 -32 30 33 38 0
-28 -29 -31 -32 30 33 39 0
-29 -31 -32 -33 28 30 34 0
-29 -31 -32 -33 28 30 35 0
-29 -31 -32 -33 -36 28 30 0
-29 -31 -32 -33 28 30 37 0
-29 -31 -32 -33 28 30 38 0
-29 -31 -32 -33 -39 28 30 0
-29 -31 -32 -34 28 30 33 0
-29 -31 -32 28 30 33 35 0
-29 -31 -32 -36 28 30 33 0
-29 -31 -32 28 30 33 37 0
-29 -31 -32 28 30 33 38 0
-29 -31 -32 28 30 33 39 0
-28 -31 -32 -33 -34 29 30 0
-28 -31 -32 -33 29 30 35 0
-28 -31 -32 -33 -36 29 30 0
-28 -31 -32 -33 29 30 37 0
-28 -31 -32 -33 29 30 38 0
-28 -31 -32 -33 -39 29 30 0
-28 -31 -32 29 30 33 34 0
-28 -31 -32 -35 29 30 33 0
-28 -31 -32 -36 29 30 33 0
-28 -31 -32 29 30 33 37 0
-28 -31 -32 29 30 33 38 0
-28 -31 -32 29 30 33 39 0
-31 -32 -33 28 29 30 34 0
-31 -32 -33 -35 28 29 30 0
-31 -32 -33 -36 28 29 30 0
-31 -32 -33 28 29 30 37 0
-31 -32 -33 28 29 30 38 0
-31 -32 -33 -39 28 29 30 0
-31 -32 -34 28 29 30 33 0
-31 -32 -35 28 29 30 33 0
-31 -32 -36 28 29 30 33 0
-31 -32 28 29 30 33 37 0
-31 -32 28 29 30 33 38 0
-31 -32 28 29 30 33 39 0
-28 -29 -30 -32 -33 -34 31 0
-28 -29 -30 -32 -33 -35 31 0
-28 -29 -30 -32 -33 -36 31 0
-28 -29 -30 -32 -33 31 37 0
-28 -29 -30 -32 -33 31 38 0
-28 -29 -30 -32 -33 -39 31 0
-28 -29 -30 -32 31 33 34 0
-28 -29 -30 -32 31 33 35 0
-28 -29 -30 -32 31 33 36 0
-28 -29 -30 -32 -37 31 33 0
-28 -29 -30 -32 31 33 38 0
-28 -29 -30 -32 31 33 39 0
-29 -30 -32 -33 28 31 34 0
-29 -30 -32 -33 28 31 35 0
-29 -30 -32 -33 28 31 36 0
-29 -30 -32 -33 -37 28 31 0
-29 -30 -32 -33 28 31 38 0
-29 -30 -32 -33 -39 28 31 0
-29 -30 -32 -34 28 31 33 0
-29 -30 -32 28 31 33 35 0
-29 -30 -32 28 31 33 36 0
-29 -30 -32 -37 28 31 33 0
-29 -30 -32 28 31 33 38 0
-29 -30 -32 28 31 33 39 0
-28 -30 -32 -33 -34 29 31 0
-28 -30 -32 -33 29 31 35 0
-28 -30 -32 -33 29 31 36 0
-28 -30 -32 -33 -37 29 31 0
-28 -30 -32 -33 29 31 38 0
-28 -30 -32 -33 -39 29 31 0
-28 -30 -32 29 31 33 34 0
-28 -30 -32 -35 29 31 33 0
-28 -30 -32 29 31 33 36 0
-28 -30 -32 -37 29 31 33 0
-28 -30 -32 29 31 33 38 0
-28 -30 -32 29 31 33 39 0
-30 -32 -33 28 29 31 34 0
-30 -32 -33 -35 28 29 31 0
-30 -32 -33 28 29 31 36 0
-30 -32 -33 -37 28 29 31 0
-30 -32 -33 28 29 31 38 0
-30 -32 -33 -39 28 29 31 0
-30 -32 -34 28 29 31 33 0
-30 -32 -35 28 29 31 33 0
-30 -32 28 29 31 33 36 0
-30 -32 -37 28 29 31 33 0
-30 -32 28 29 31 33 38 0
-30 -32 28 29 31 33 39 0
-28 -29 -32 -33 -34 30 31 0
-28 -29 -32 -33 -35 30 31 0
-28 -29 -32 -33 30 31 36 0
-28 -29 -32 -33 -37 30 31 0
-28 -29 -32 -33 30 31 38 0
-28 -29 -32 -33 -39 30 31 0
-28 -29 -32 30 31 33 34 0
-28 -29 -32 30 31 33 35 0
-28 -29 -32 -36 30 31 33 0
-28 -29 -32 -37 30 31 33 0
-28 -29 -32 30 31 33 38 0
-28 -29 -32 30 31 33 39 0
-29 -32 -33 28 30 31 34 0
-29 -32 -33 28 30 31 35 0
-29 -32 -33 -36 28 30 31 0
-29 -32 -33 -37 28 30 31 0
-29 -32 -33 28 30 31 38 0
-29 -32 -33 -39 28 30 31 0
-29 -32 -34 28 30 31 33 0
-29 -32 28 30 31 33 35 0
-29 -32 -36 28 30 31 33 0
-29 -32 -37 28 30 31 33 0
-29 -32 28 30 31 33 38 0
-29 -32 28 30 31 33 39 0
-28 -32 -33 -34 29 30 31 0
-28 -32 -33 29 30 31 35 0
-28 -32 -33 -36 29 30 31 0
-28 -32 -33 -37 29 30 31 0
-28 -32 -33 29 30 31 38 0
-28 -32 -33 -39 29 30 31 0
-28 -32 29 30 31 33 34 0
-28 -32 -35 29 30 31 33 0
-28 -32 -36 29 30 31 33 0
-28 -32 -37 29 30 31 33 0
-28 -32 29 30 31 33 38 0
-28 -32 29 30 31 33 39 0
-32 -33 28 29 30 31 34 0
-32 -33 -35 28 29 30 31 0
-32 -33 -36 28 29 30 31 0
-32 -33 -37 28 29 30 31 0
-32 -33 28 29 30 31 38 0
-32 -33 -39 28 29 30 31 0
-32 -34 28 29 30 31 33 0
-32 -35 28 29 30 31 33 0
-32 -36 28 29 30 31 33 0
-32 -37 28 29 30 31 33 0
-32 28 29 30 31 33 38 0
-32 28 29 30 31 33 39 0
-28 -29 -30 -31 -33 -34 32 0
-28 -29 -30 -31 -33 -35 32 0
-28 -29 -30 -31 -33 -36 32 0
-28 -29 -30 -31 -33 -37 32 0
-28 -29 -30 -31 -33 32 38 0
-28 -29 -30 -31 -33 -39 32 0
-28 -29 -30 -31 32 33 34 0
-28 -29 -30 -31 32 33 35 0
-28 -29 -30 -31 32 33 36 0
-28 -29 -30 -31 32 33 37 0
-28 -29 -30 -31 -38 32 33 0
-28 -29 -30 -31 32 33 39 0
-29 -30 -31 -33 28 32 34 0
-29 -30 -31 -33 28 32 35 0
-29 -30 -31 -33 28 32 36 0
-29 -30 -31 -33 28 32 37 0
-29 -30 -31 -33 -38 28 32 0
-29 -30 -31 -33 -39 28 32 0
-29 -30 -31 -34 28 32 33 0
-29 -30 -31 28 32 33 35 0
-29 -30 -31 28 32 33 36 0
-29 -30 -31 28 32 33 37 0
-29 -30 -31 -38 28 32 33 0
-29 -30 -31 28 32 33 39 0
-28 -30 -31 -33 -34 29 32 0
-28 -30 -31 -33 29 32 35 0
-28 -30 -31 -33 29 32 36 0
-28 -30 -31 -33 29 32 37 0
-28 -30 -31 -33 -38 29 32 0
-28 -30 -31 -33 -39 29 32 0
-28 -30 -31 29 32 33 34 0
-28 -30 -31 -35 29 32 33 0
-28 -30 -31 29 32 33 36 0
-28 -30 -31 29 32 33 37 0
-28 -30 -31 -38 29 32 33 0
-28 -30 -31 29 32 33 39 0
-30 -31 -33 28 29 32 34 0
-30 -31 -33 -35 28 29 32 0
-30 -31 -33 28 29 32 36 0
-30 -31 -33 28 29 32 37 0
-30 -31 -33 -38 28 29 32 0
-30 -31 -33 -39 28 29 32 0
-30 -31 -34 28 29 32 33 0
-30 -31 -35 28 29 32 33 0
-30 -31 28 29 32 33 36 0
-30 -31 28 29 32 33 37 0
-30 -31 -38 28 29 32 33 0
-30 -31 28 29 32 33 39 0
-28 -29 -31 -33 -34 30 32 0
-28 -29 -31 -33 -35 30 32 0
-28 -29 -31 -33 30 32 36 0
-28 -29 -31 -33 30 32 37 0
-28 -29 -31 -33 -38 30 32 0
-28 -29 -31 -33 -39 30 32 0
-28 -29 -31 30 32 33 34 0
-28 -29 -31 30 32 33 35 0
-28 -29 -31 -36 30 32 33 0
-28 -29 -31 30 32 33 37 0
-28 -29 -31 -38 30 32 33 0
-28 -29 -31 30 32 33 39 0
-29 -31 -33 28 30 32 34 0
-29 -31 -33 28 30 32 35 0
-29 -31 -33 -36 28 30 32 0
-29 -31 -33 28 30 32 37 0
-29 -31 -33 -38 28 30 32 0
-29 -31 -33 -39 28 30 32 0
-29 -31 -34 28 30 32 33 0
-29 -31 28 30 32 33 35 0
-29 -31 -36 28 30 32 33 0
-29 -31 28 30 32 33 37 0
-29 -31 -38 28 30 32 33 0
-29 -31 28 30 32 33 39 0
-28 -31 -33 -34 29 30 32 0
-28 -31 -33 29 30 32 35 0
-28 -31 -33 -36 29 30 32 0
-28 -31 -33 29 30 32 37 0
-28 -31 -33 -38 29 30 32 0
-28 -31 -33 -39 29 30 32 0
-28 -31 29 30 32 33 34 0
-28 -31 -35 29 30 32 33 0
-28 -31 -36 29 30 32 33 0
-28 -31 29 30 32 33 37 0
-28 -31 -38 29 30 32 33 0
-28 -31 29 30 32 33 39 0
-31 -33 28 29 30 32 34 0
-31 -33 -35 28 29 30 32 0
-31 -33 -36 28 29 30 32 0
-31 -33 28 29 30 32 37 0
-31 -33 -38 28 29 30 32 0
-31 -33 -39 28 29 30 32 0
-31 -34 28 29 30 32 33 0
-31 -35 28 29 30 32 33 0
-31 -36 28 29 30 32 33 0
-31 28 29 30 32 33 37 0
-31 -38 28 29 30 32 33 0
-31 28 29 30 32 33 39 0
-28 -29 -30 -33 -34 31 32 0
-28 -29 -30 -33 -35 31 32 0
-28 -29 -30 -33 -36 31 32 0
-28 -29 -30 -33 31 32 37 0
-28 -29 -30 -33 -38 31 32 0
-28 -29 -30 -33 -39 31 32 0
-28 -29 -30 31 32 33 34 0
-28 -29 -30 31 32 33 35 0
-28 -29 -30 31 32 33 36 0
-28 -29 -30 -37 31 32 33 0
-28 -29 -30 -38 31 32 33 0
-28 -29 -30 31 32 33 39 0
-29 -30 -33 28 31 32 34 0
-29 -30 -33 28 31 32 35 0
-29 -30 -33 28 31 32 36 0
-29 -30 -33 -37 28 31 32 0
-29 -30 -33 -38 28 31 32 0
-29 -30 -33 -39 28 31 32 0
-29 -30 -34 28 31 32 33 0
-29 -30 28 31 32 33 35 0
-29 -30 28 31 32 33 36 0
-29 -30 -37 28 31 32 33 0
-29 -30 -38 28 31 32 33 0
-29 -30 28 31 32 33 39 0
-28 -30 -33 -34 29 31 32 0
-28 -30 -33 29 31 32 35 0
-28 -30 -33 29 31 32 36 0
-28 -30 -33 -37 29 31 32 0
-28 -30 -33 -38 29 31 32 0
-28 -30 -33 -39 29 31 32 0
-28 -30 29 31 32 33 34 0
-28 -30 -35 29 31 32 33 0
-28 -30 29 31 32 33 36 0
-28 -30 -37 29 31 32 33 0
-28 -30 -38 29 31 32 33 0
-28 -30 29 31 32 33 39 0
-30 -33 28 29 31 32 34 0
-30 -33 -35 28 29 31 32 0
-30 -33 28 29 31 32 36 0
-30 -33 -37 28 29 31 32 0
-30 -33 -38 28 29 31 32 0
-30 -33 -39 28 29 31 32 0
-30 -34 28 29 31 32 33 0
-30 -35 28 29 31 32 33 0
-30 28 29 31 32 33 36 0
-30 -37 28 29 31 32 33 0
-30 -38 28 29 31 32 33 0
-30 28 29 31 32 33 39 0
-28 -29 -33 -34 30 31 32 0
-28 -29 -33 -35 30 31 32 0
-28 -29 -33 30 31 32 36 0
-28 -29 -33 -37 30 31 32 0
-28 -29 -33 -38 30 31 32 0
-28 -29 -33 -39 30 31 32 0
-28 -29 30 31 32 33 34 0
-28 -29 30 31 32 33 35 0
-28 -29 -36 30 31 32 33 0
-28 -29 -37 30 31 32 33 0
-28 -29 -38 30 31 32 33 0
-28 -29 30 31 32 33 39 0
-29 -33 28 30 31 32 34 0
-29 -33 28 30 31 32 35 0
-29 -33 -36 28 30 31 32 0
-29 -33 -37 28 30 31 32 0
-29 -33 -38 28 30 31 32 0
-29 -33 -39 28 30 31 32 0
-29 -34 28 30 31 32 33 0
-29 28 30 31 32 33 35 0
-29 -36 28 30 31 32 33 0
-29 -37 28 30 31 32 33 0
-29 -38 28 30 31 32 33 0
-29 28 30 31 32 33 39 0
-28 -33 -34 29 30 31 32 0
-28 -33 29 30 31 32 35 0
-28 -33 -36 29 30 31 32 0
-28 -33 -37 29 30 31 32 0
-28 -33 -38 29 30 31 32 0
-28 -33 -39 29 30 31 32 0
-28 29 30 31 32 33 34 0
-28 -35 29 30 31 32 33 0
-28 -36 29 30 31 32 33 0
-28 -37 29 30 31 32 33 0
-28 -38 29 30 31 32 33 0
-28 29 30 31 32 33 39 0
-33 28 29 30 31 32 34 0
-33 -35 28 29 30 31 32 0
-33 -36 28 29 30 31 32 0
-33 -37 28 29 30 31 32 0
-33 -38 28 29 30 31 32 0
-33 -39 28 29 30 31 32 0
-34 28 29 30 31 32 33 0
-35 28 29 30 31 32 33 0
-36 28 29 30 31 32 33 0
-37 28 29 30 31 32 33 0
-38 28 29 30 31 32 33 0
28 29 30 31 32 33 39 0
-28 -29 -30 -31 -32 33 34 0
-28 -29 -30 -31 -32 33 35 0
-28 -29 -30 -31 -32 33 36 0
-28 -29 -30 -31 -32 33 37 0
-28 -29 -30 -31 -32 33 38 0
-28 -29 -30 -31 -32 33 39 0
-40 0
-41 0
-42 0
-43 0
-44 0
-45 0
-46 0
-8 -46 0
-8 -40 0
-10 -41 0
-10 -46 0
-12 -42 0
-12 -46 0
-14 -43 0
-14 -46 0
-16 -44 0
-16 -46 0
-18 -45 0
-18 -46 0
-19 46 0
-8 2 0
-8 -22 0
-8 1 0
-10 3 0
-10 -23 0
-10 2 0
-12 4 0
-12 -24 0
-12 2 0
-14 5 0
-14 -25 0
-14 2 0
-16 6 0
-16 -26 0
-16 2 0
-18 7 0
-18 -27 0
-18 2 0
-2 -19 0
-1 8 40 0
-40 1 0
-2 8 10 12 14 16 18 46 0
-46 2 19 0
-22 39 0
-39 8 22 0
-3 10 41 0
-41 3 0
-23 34 0
-34 10 23 0
-4 12 42 0
-42 4 0
-24 35 0
-35 12 24 0
-5 14 43 0
-43 5 0
-25 36 0
-36 14 25 0
-6 16 44 0
-44 6 0
-26 37 0
-37 16 26 0
-7 18 45 0
-45 7 0
-27 38 0
-38 18 27 0
-8 -10 0
-8 -12 0
-8 -14 0
-8 -16 0
-8 -18 0
-8 -19 0
-10 -12 0
-10 -14 0
-10 -16 0
-10 -18 0
-10 -19 0
-12 -14 0
-12 -16 0
-12 -18 0
-12 -19 0
-14 -16 0
-14 -18 0
-14 -19 0
-16 -18 0
-16 -19 0
-18 -19 0
-22 0
-23 0
-24 0
-25 0
-26 0
-27 0
